instances/knapsack/discrete_knapsack_uncertainty/knapsack_50_18.lp
\ Model knapsack_50_18
\ LP format - for model browsing. Use MPS format to capture full model detail.
\ Signature: 0xe2d4f45d0ac270ee
Minimize
  - 14 x[0] - 90 x[1] - 68 x[2] - 36 x[3] - 9 x[4] - 33 x[5] - 89 x[6]
   - 47 x[7] - 10 x[8] - 94 x[9] - 31 x[10] - 35 x[11] - 75 x[12]
   - 22 x[13] - 63 x[14] - 24 x[15] - 70 x[16] - 54 x[17] - 2 x[18]
   - 29 x[19] - 21 x[20] - 63 x[21] - 4 x[22] - 8 x[23] - x[24] - 22 x[25]
   - 36 x[26] - 15 x[27] - 18 x[28] - 84 x[29] - 45 x[30] - 80 x[31]
   - 24 x[32] - 87 x[33] - 87 x[34] - 41 x[35] - 5 x[36] - 51 x[37]
   - 90 x[38] - 67 x[39] - 88 x[40] - 73 x[41] - 61 x[42] - 47 x[43]
   - 78 x[44] - 3 x[45] - 100 x[46] - 40 x[47] - 76 x[48] - 53 x[49]
Subject To
 primal_upper: 81 x[0] + 98 x[1] + 24 x[2] + 89 x[3] + 22 x[4] + 75 x[5]
   + 55 x[6] + 37 x[7] + 35 x[8] + 16 x[9] + 9 x[10] + 89 x[11] + 18 x[12]
   + 66 x[13] + 14 x[14] + 66 x[15] + 11 x[16] + 86 x[17] + 59 x[18]
   + 24 x[19] + 83 x[20] + 17 x[21] + 98 x[22] + 72 x[23] + 86 x[24]
   + 78 x[25] + 80 x[26] + 69 x[27] + 27 x[28] + 5 x[29] + 95 x[30]
   + 37 x[31] + 61 x[32] + 7 x[33] + 26 x[34] + 71 x[35] + 70 x[36]
   + 74 x[37] + 82 x[38] + 20 x[39] + 77 x[40] + 19 x[41] + 96 x[42]
   + 11 x[43] + 85 x[44] + 20 x[45] + 11 x[46] + 75 x[47] + 97 x[48]
   + 74 x[49] + 8.1 r[0] + 9.8 r[1] + 2.4 r[2] + 8.9 r[3] + 2.2 r[4]
   + 7.5 r[5] + 5.5 r[6] + 3.7 r[7] + 3.5 r[8] + 1.6 r[9] + 0.9 r[10]
   + 8.9 r[11] + 1.8 r[12] + 6.6 r[13] + 1.4 r[14] + 6.6 r[15] + 1.1 r[16]
   + 8.6 r[17] + 5.9 r[18] + 2.4 r[19] + 8.3 r[20] + 1.7 r[21] + 9.8 r[22]
   + 7.2 r[23] + 8.6 r[24] + 7.8 r[25] + 8 r[26] + 6.9 r[27] + 2.7 r[28]
   + 0.5 r[29] + 9.5 r[30] + 3.7 r[31] + 6.1 r[32] + 0.7 r[33] + 2.6 r[34]
   + 7.1 r[35] + 7 r[36] + 7.4 r[37] + 8.2 r[38] + 2 r[39] + 7.7 r[40]
   + 1.9 r[41] + 9.6 r[42] + 1.1 r[43] + 8.5 r[44] + 2 r[45] + 1.1 r[46]
   + 7.5 r[47] + 9.7 r[48] + 7.4 r[49] <= 256
 primal_lower: 3.882431493308985 x[0] + 1.85914052836354 x[1]
   + 3.901888325639371 x[2] + 4.446621977137942 x[3]
   + 3.496152888552105 x[4] + 2.480517794188666 x[5]
   + 5.001307572528161 x[6] + 4.687923744635913 x[7]
   + 4.038765750861885 x[8] + 3.359964666373016 x[9]
   + 3.821609254228902 x[10] + 2.848991503654189 x[11]
   + 3.253860829660416 x[12] + 2.516999056589021 x[13]
   + 0.2187252622061101 x[14] + 4.44256541670071 x[15]
   + 1.892090852766475 x[16] + 2.153816729359164 x[17]
   + 4.700551471085333 x[18] + 1.913669394790241 x[19]
   + 3.801606660859731 x[20] + 0.1226229159741155 x[21]
   + 0.5426041774482812 x[22] + 0.5909091047158476 x[23]
   + 0.3787189937984877 x[24] + 5.108111923030118 x[25]
   + 0.7191209130949804 x[26] + 1.947423186029434 x[27]
   + 3.082617793322354 x[28] + 2.574524302541564 x[29]
   + 2.752051153220982 x[30] + 0.7917405482540786 x[31]
   + 2.670239873895043 x[32] + 2.323790956597038 x[33]
   + 3.195134844232875 x[34] + 3.124240794958405 x[35]
   + 3.270119065044426 x[36] + 3.641160173932746 x[37]
   + 2.578375669670249 x[38] + 0.1265907028898957 x[39]
   + 5.164087437930695 x[40] + 0.4087485767317953 x[41]
   + 4.491140220863636 x[42] + 4.477021844881966 x[43]
   + 4.878888881630895 x[44] + 3.882562616635811 x[45]
   + 4.84586515076309 x[46] + 4.758765253981471 x[47]
   + 3.706455504341985 x[48] + 4.687462714823506 x[49] + 66 u[0] + 78 u[1]
   + 76 u[2] + 45 u[3] + 10 u[4] + 100 u[5] + 75 u[6] + 70 u[7] + 47 u[8]
   + 88 u[9] + 14 u[10] + 73 u[11] + 90 u[12] + 66 u[13] + 67 u[14]
   + 67 u[15] + 31 u[16] + 86 u[17] + 51 u[18] + 68 u[19] + 51 u[20]
   + 6 u[21] + 66 u[22] + 37 u[23] + 7 u[24] + 14 u[25] + 60 u[26]
   + 10 u[27] + 84 u[28] + 65 u[29] + 92 u[30] + 70 u[31] + 98 u[32]
   + 43 u[33] + 22 u[34] + 47 u[35] + 86 u[36] + 47 u[37] + 82 u[38]
   + 73 u[39] + 85 u[40] + 36 u[41] + 4 u[42] + 100 u[43] + 45 u[44]
   + 61 u[45] + 92 u[46] + 28 u[47] + 57 u[48] + 42 u[49] <= 45238
 mccormick1[0]: - u[0] + r[0] <= 0
 mccormick1[1]: - u[1] + r[1] <= 0
 mccormick1[2]: - u[2] + r[2] <= 0
 mccormick1[3]: - u[3] + r[3] <= 0
 mccormick1[4]: - u[4] + r[4] <= 0
 mccormick1[5]: - u[5] + r[5] <= 0
 mccormick1[6]: - u[6] + r[6] <= 0
 mccormick1[7]: - u[7] + r[7] <= 0
 mccormick1[8]: - u[8] + r[8] <= 0
 mccormick1[9]: - u[9] + r[9] <= 0
 mccormick1[10]: - u[10] + r[10] <= 0
 mccormick1[11]: - u[11] + r[11] <= 0
 mccormick1[12]: - u[12] + r[12] <= 0
 mccormick1[13]: - u[13] + r[13] <= 0
 mccormick1[14]: - u[14] + r[14] <= 0
 mccormick1[15]: - u[15] + r[15] <= 0
 mccormick1[16]: - u[16] + r[16] <= 0
 mccormick1[17]: - u[17] + r[17] <= 0
 mccormick1[18]: - u[18] + r[18] <= 0
 mccormick1[19]: - u[19] + r[19] <= 0
 mccormick1[20]: - u[20] + r[20] <= 0
 mccormick1[21]: - u[21] + r[21] <= 0
 mccormick1[22]: - u[22] + r[22] <= 0
 mccormick1[23]: - u[23] + r[23] <= 0
 mccormick1[24]: - u[24] + r[24] <= 0
 mccormick1[25]: - u[25] + r[25] <= 0
 mccormick1[26]: - u[26] + r[26] <= 0
 mccormick1[27]: - u[27] + r[27] <= 0
 mccormick1[28]: - u[28] + r[28] <= 0
 mccormick1[29]: - u[29] + r[29] <= 0
 mccormick1[30]: - u[30] + r[30] <= 0
 mccormick1[31]: - u[31] + r[31] <= 0
 mccormick1[32]: - u[32] + r[32] <= 0
 mccormick1[33]: - u[33] + r[33] <= 0
 mccormick1[34]: - u[34] + r[34] <= 0
 mccormick1[35]: - u[35] + r[35] <= 0
 mccormick1[36]: - u[36] + r[36] <= 0
 mccormick1[37]: - u[37] + r[37] <= 0
 mccormick1[38]: - u[38] + r[38] <= 0
 mccormick1[39]: - u[39] + r[39] <= 0
 mccormick1[40]: - u[40] + r[40] <= 0
 mccormick1[41]: - u[41] + r[41] <= 0
 mccormick1[42]: - u[42] + r[42] <= 0
 mccormick1[43]: - u[43] + r[43] <= 0
 mccormick1[44]: - u[44] + r[44] <= 0
 mccormick1[45]: - u[45] + r[45] <= 0
 mccormick1[46]: - u[46] + r[46] <= 0
 mccormick1[47]: - u[47] + r[47] <= 0
 mccormick1[48]: - u[48] + r[48] <= 0
 mccormick1[49]: - u[49] + r[49] <= 0
 mccormick2[0]: - x[0] + r[0] <= 0
 mccormick2[1]: - x[1] + r[1] <= 0
 mccormick2[2]: - x[2] + r[2] <= 0
 mccormick2[3]: - x[3] + r[3] <= 0
 mccormick2[4]: - x[4] + r[4] <= 0
 mccormick2[5]: - x[5] + r[5] <= 0
 mccormick2[6]: - x[6] + r[6] <= 0
 mccormick2[7]: - x[7] + r[7] <= 0
 mccormick2[8]: - x[8] + r[8] <= 0
 mccormick2[9]: - x[9] + r[9] <= 0
 mccormick2[10]: - x[10] + r[10] <= 0
 mccormick2[11]: - x[11] + r[11] <= 0
 mccormick2[12]: - x[12] + r[12] <= 0
 mccormick2[13]: - x[13] + r[13] <= 0
 mccormick2[14]: - x[14] + r[14] <= 0
 mccormick2[15]: - x[15] + r[15] <= 0
 mccormick2[16]: - x[16] + r[16] <= 0
 mccormick2[17]: - x[17] + r[17] <= 0
 mccormick2[18]: - x[18] + r[18] <= 0
 mccormick2[19]: - x[19] + r[19] <= 0
 mccormick2[20]: - x[20] + r[20] <= 0
 mccormick2[21]: - x[21] + r[21] <= 0
 mccormick2[22]: - x[22] + r[22] <= 0
 mccormick2[23]: - x[23] + r[23] <= 0
 mccormick2[24]: - x[24] + r[24] <= 0
 mccormick2[25]: - x[25] + r[25] <= 0
 mccormick2[26]: - x[26] + r[26] <= 0
 mccormick2[27]: - x[27] + r[27] <= 0
 mccormick2[28]: - x[28] + r[28] <= 0
 mccormick2[29]: - x[29] + r[29] <= 0
 mccormick2[30]: - x[30] + r[30] <= 0
 mccormick2[31]: - x[31] + r[31] <= 0
 mccormick2[32]: - x[32] + r[32] <= 0
 mccormick2[33]: - x[33] + r[33] <= 0
 mccormick2[34]: - x[34] + r[34] <= 0
 mccormick2[35]: - x[35] + r[35] <= 0
 mccormick2[36]: - x[36] + r[36] <= 0
 mccormick2[37]: - x[37] + r[37] <= 0
 mccormick2[38]: - x[38] + r[38] <= 0
 mccormick2[39]: - x[39] + r[39] <= 0
 mccormick2[40]: - x[40] + r[40] <= 0
 mccormick2[41]: - x[41] + r[41] <= 0
 mccormick2[42]: - x[42] + r[42] <= 0
 mccormick2[43]: - x[43] + r[43] <= 0
 mccormick2[44]: - x[44] + r[44] <= 0
 mccormick2[45]: - x[45] + r[45] <= 0
 mccormick2[46]: - x[46] + r[46] <= 0
 mccormick2[47]: - x[47] + r[47] <= 0
 mccormick2[48]: - x[48] + r[48] <= 0
 mccormick2[49]: - x[49] + r[49] <= 0
 mccormick3[0]: x[0] + u[0] - r[0] <= 1
 mccormick3[1]: x[1] + u[1] - r[1] <= 1
 mccormick3[2]: x[2] + u[2] - r[2] <= 1
 mccormick3[3]: x[3] + u[3] - r[3] <= 1
 mccormick3[4]: x[4] + u[4] - r[4] <= 1
 mccormick3[5]: x[5] + u[5] - r[5] <= 1
 mccormick3[6]: x[6] + u[6] - r[6] <= 1
 mccormick3[7]: x[7] + u[7] - r[7] <= 1
 mccormick3[8]: x[8] + u[8] - r[8] <= 1
 mccormick3[9]: x[9] + u[9] - r[9] <= 1
 mccormick3[10]: x[10] + u[10] - r[10] <= 1
 mccormick3[11]: x[11] + u[11] - r[11] <= 1
 mccormick3[12]: x[12] + u[12] - r[12] <= 1
 mccormick3[13]: x[13] + u[13] - r[13] <= 1
 mccormick3[14]: x[14] + u[14] - r[14] <= 1
 mccormick3[15]: x[15] + u[15] - r[15] <= 1
 mccormick3[16]: x[16] + u[16] - r[16] <= 1
 mccormick3[17]: x[17] + u[17] - r[17] <= 1
 mccormick3[18]: x[18] + u[18] - r[18] <= 1
 mccormick3[19]: x[19] + u[19] - r[19] <= 1
 mccormick3[20]: x[20] + u[20] - r[20] <= 1
 mccormick3[21]: x[21] + u[21] - r[21] <= 1
 mccormick3[22]: x[22] + u[22] - r[22] <= 1
 mccormick3[23]: x[23] + u[23] - r[23] <= 1
 mccormick3[24]: x[24] + u[24] - r[24] <= 1
 mccormick3[25]: x[25] + u[25] - r[25] <= 1
 mccormick3[26]: x[26] + u[26] - r[26] <= 1
 mccormick3[27]: x[27] + u[27] - r[27] <= 1
 mccormick3[28]: x[28] + u[28] - r[28] <= 1
 mccormick3[29]: x[29] + u[29] - r[29] <= 1
 mccormick3[30]: x[30] + u[30] - r[30] <= 1
 mccormick3[31]: x[31] + u[31] - r[31] <= 1
 mccormick3[32]: x[32] + u[32] - r[32] <= 1
 mccormick3[33]: x[33] + u[33] - r[33] <= 1
 mccormick3[34]: x[34] + u[34] - r[34] <= 1
 mccormick3[35]: x[35] + u[35] - r[35] <= 1
 mccormick3[36]: x[36] + u[36] - r[36] <= 1
 mccormick3[37]: x[37] + u[37] - r[37] <= 1
 mccormick3[38]: x[38] + u[38] - r[38] <= 1
 mccormick3[39]: x[39] + u[39] - r[39] <= 1
 mccormick3[40]: x[40] + u[40] - r[40] <= 1
 mccormick3[41]: x[41] + u[41] - r[41] <= 1
 mccormick3[42]: x[42] + u[42] - r[42] <= 1
 mccormick3[43]: x[43] + u[43] - r[43] <= 1
 mccormick3[44]: x[44] + u[44] - r[44] <= 1
 mccormick3[45]: x[45] + u[45] - r[45] <= 1
 mccormick3[46]: x[46] + u[46] - r[46] <= 1
 mccormick3[47]: x[47] + u[47] - r[47] <= 1
 mccormick3[48]: x[48] + u[48] - r[48] <= 1
 mccormick3[49]: x[49] + u[49] - r[49] <= 1
Bounds
Binaries
 x[0] x[1] x[2] x[3] x[4] x[5] x[6] x[7] x[8] x[9] x[10] x[11] x[12] x[13]
 x[14] x[15] x[16] x[17] x[18] x[19] x[20] x[21] x[22] x[23] x[24] x[25]
 x[26] x[27] x[28] x[29] x[30] x[31] x[32] x[33] x[34] x[35] x[36] x[37]
 x[38] x[39] x[40] x[41] x[42] x[43] x[44] x[45] x[46] x[47] x[48] x[49]
 u[0] u[1] u[2] u[3] u[4] u[5] u[6] u[7] u[8] u[9] u[10] u[11] u[12] u[13]
 u[14] u[15] u[16] u[17] u[18] u[19] u[20] u[21] u[22] u[23] u[24] u[25]
 u[26] u[27] u[28] u[29] u[30] u[31] u[32] u[33] u[34] u[35] u[36] u[37]
 u[38] u[39] u[40] u[41] u[42] u[43] u[44] u[45] u[46] u[47] u[48] u[49]
 r[0] r[1] r[2] r[3] r[4] r[5] r[6] r[7] r[8] r[9] r[10] r[11] r[12] r[13]
 r[14] r[15] r[16] r[17] r[18] r[19] r[20] r[21] r[22] r[23] r[24] r[25]
 r[26] r[27] r[28] r[29] r[30] r[31] r[32] r[33] r[34] r[35] r[36] r[37]
 r[38] r[39] r[40] r[41] r[42] r[43] r[44] r[45] r[46] r[47] r[48] r[49]
End
