instances/knapsack/discrete_knapsack_uncertainty/knapsack_50_18.kp
35001
50
256

81 8.1 14
98 9.8 90
24 2.4 68
89 8.9 36
22 2.2 9
75 7.5 33
55 5.5 89
37 3.7 47
35 3.5 10
16 1.6 94
9 0.9 31
89 8.9 35
18 1.8 75
66 6.6 22
14 1.4 63
66 6.6 24
11 1.1 70
86 8.6 54
59 5.9 2
24 2.4 29
83 8.3 21
17 1.7 63
98 9.8 4
72 7.2 8
86 8.6 1
78 7.8 22
80 8.0 36
69 6.9 15
27 2.7 18
5 0.5 84
95 9.5 45
37 3.7 80
61 6.1 24
7 0.7 87
26 2.6 87
71 7.1 41
70 7.0 5
74 7.4 51
82 8.2 90
20 2.0 67
77 7.7 88
19 1.9 73
96 9.6 61
11 1.1 47
85 8.5 78
20 2.0 3
11 1.1 100
75 7.5 40
97 9.7 76
74 7.4 53

45238
274

[3.882431493308985 1.8591405283635398 3.901888325639371 4.446621977137942 3.4961528885521047 2.480517794188666 5.0013075725281615 4.687923744635913 4.038765750861885 3.3599646663730156 3.821609254228902 2.8489915036541893 3.253860829660416 2.5169990565890212 0.2187252622061101 4.4425654167007105 1.8920908527664753 2.1538167293591637 4.700551471085333 1.913669394790241 3.801606660859731 0.12262291597411548 0.5426041774482812 0.5909091047158476 0.3787189937984877 5.108111923030118 0.7191209130949804 1.9474231860294338 3.0826177933223535 2.5745243025415636 2.752051153220982 0.7917405482540786 2.670239873895043 2.3237909565970383 3.195134844232875 3.124240794958405 3.2701190650444256 3.641160173932746 2.5783756696702493 0.12659070288989574 5.164087437930695 0.4087485767317953 4.491140220863636 4.477021844881966 4.878888881630895 3.8825626166358114 4.84586515076309 4.758765253981471 3.7064555043419847 4.687462714823506]

[66 78 76 45 10 100 75 70 47 88 14 73 90 66 67 67 31 86 51 68 51 6 66 37 7 14 60 10 84 65 92 70 98 43 22 47 86 47 82 73 85 36 4 100 45 61 92 28 57 42]
